; benchmark generated from python API
(set-info :status unknown)
(declare-fun DISJ_W_S2_R_S1 () Bool)
(declare-fun W_S2_V3 () Bool)
(declare-fun W_S1_V4 () Bool)
(declare-fun R_S2_V5 () Bool)
(declare-fun R_S2_V4 () Bool)
(declare-fun W_S1_V5 () Bool)
(declare-fun W_S2_V5 () Bool)
(declare-fun DISJ_W_S1_W_S2 () Bool)
(declare-fun R_S2_V3 () Bool)
(declare-fun W_S2_V2 () Bool)
(declare-fun W_S2_V1 () Bool)
(declare-fun DISJ_W_S1_R_S2 () Bool)
(declare-fun DISJ_W_S2_R_S2 () Bool)
(declare-fun R_E1_V4 () Bool)
(declare-fun R_E1_V5 () Bool)
(declare-fun R_S2_V2 () Bool)
(declare-fun R_S2_V1 () Bool)
(declare-fun R_S1_V4 () Bool)
(declare-fun R_S1_V5 () Bool)
(declare-fun R_S1_V2 () Bool)
(declare-fun R_S1_V3 () Bool)
(declare-fun R_S1_V1 () Bool)
(declare-fun R_E1_V2 () Bool)
(declare-fun DISJ_W_S2_R_E1 () Bool)
(declare-fun R_E1_V3 () Bool)
(declare-fun DISJ_W_S1_R_S1 () Bool)
(declare-fun W_S2_V4 () Bool)
(declare-fun W_S1_V3 () Bool)
(declare-fun W_S1_V2 () Bool)
(declare-fun W_S1_V1 () Bool)
(declare-fun R_E1_V1 () Bool)
(declare-fun DISJ_W_S1_R_E1 () Bool)
(assert
 (let (($x2042 (not (and (not R_S2_V5) (not W_S1_V4) (not W_S2_V3) DISJ_W_S2_R_S1))))
 (let (($x5371 (not (and (not R_S2_V5) (not R_S2_V4) (not W_S2_V3) DISJ_W_S2_R_S1))))
 (let (($x2054 (not (and (not R_S2_V4) (not W_S1_V5) (not W_S2_V3) DISJ_W_S2_R_S1))))
 (let (($x2032 (not (and (not R_S2_V4) (not W_S2_V5) (not W_S2_V3) DISJ_W_S2_R_S1))))
 (let (($x1993 (not (and DISJ_W_S1_W_S2 DISJ_W_S2_R_S1))))
 (let (($x1207 (not (and (not R_S2_V3) (not W_S1_V4) (not W_S2_V5) DISJ_W_S2_R_S1))))
 (let (($x472 (not W_S2_V2)))
 (let (($x5238 (not W_S2_V1)))
 (let (($x2111 (and $x5238 $x472)))
 (let (($x3712 (not $x2111)))
 (let (($x2625 (not (and (not R_S2_V3) (not R_S2_V4) (not W_S2_V5) DISJ_W_S2_R_S1))))
 (let (($x2265 (not (and DISJ_W_S1_R_S2 DISJ_W_S2_R_S1))))
 (let (($x1234 (not (and $x472 DISJ_W_S2_R_S2))))
 (let (($x967 (not (and DISJ_W_S2_R_S1 DISJ_W_S2_R_S2))))
 (let (($x703 (not (and W_S1_V4 R_E1_V4))))
 (let (($x228 (not (and W_S1_V5 R_E1_V5))))
 (let (($x5866 (forall ((V3_0 Int) )(forall ((V2_0 Int) )(forall ((V5_0 Int) )(forall ((V4_0 Int) )(forall ((MW_S1_V1 Bool) )(forall ((MW_S1_V3 Bool) )(forall ((MW_S1_V2 Bool) )(forall ((MW_S1_V5 Bool) )(forall ((MW_S1_V4 Bool) )(forall ((MW_S2_V1 Bool) )(forall ((MW_S2_V3 Bool) )(forall ((MW_S2_V2 Bool) )(forall ((MW_S2_V5 Bool) )(forall ((MW_S2_V4 Bool) )(forall ((S1_V1_!2447 Int) )(forall ((S1_V1_!2457 Int) )(forall ((S1_V1_!2468 Int) )(forall ((S2_V5_!2455 Int) )(forall ((S2_V5_!2465 Int) )(forall ((S2_V5_!2477 Int) )(forall ((S2_V5_!2482 Int) )(forall ((S1_V3_!2448 Int) )(forall ((S1_V3_!2458 Int) )(forall ((S1_V3_!2469 Int) )(forall ((S1_V2_!2449 Int) )(forall ((S1_V2_!2459 Int) )(forall ((S1_V2_!2470 Int) )(forall ((E1_!2446 Int) )(forall ((E1_!2467 Int) )(forall ((E1_!2473 Int) )(forall ((S2_V4_!2456 Int) )(forall ((S2_V4_!2466 Int) )(forall ((S2_V4_!2478 Int) )(forall ((S2_V4_!2483 Int) )(forall ((S1_V5_!2450 Int) )(forall ((S1_V5_!2460 Int) )(forall ((S1_V5_!2471 Int) )(forall ((S2_V1_!2452 Int) )(forall ((S2_V1_!2462 Int) )(forall ((S2_V1_!2474 Int) )(forall ((S2_V1_!2479 Int) )(forall ((S1_V4_!2451 Int) )(forall ((S1_V4_!2461 Int) )(forall ((S1_V4_!2472 Int) )(forall ((S2_V2_!2454 Int) )(forall ((S2_V2_!2464 Int) )(forall ((S2_V2_!2476 Int) )(forall ((S2_V2_!2481 Int) )(forall ((S2_V3_!2453 Int) )(forall ((S2_V3_!2463 Int) )(forall ((S2_V3_!2475 Int) )(forall ((S2_V3_!2480 Int) )(let (($x3044 (= (ite MW_S2_V4 S2_V4_!2466 (ite MW_S1_V4 S1_V4_!2461 (ite MW_S2_V4 S2_V4_!2456 (ite MW_S1_V4 S1_V4_!2451 V4_0)))) (ite MW_S2_V4 S2_V4_!2483 (ite MW_S1_V4 S1_V4_!2472 V4_0)))))
 (let (($x922 (= (ite MW_S2_V5 S2_V5_!2465 (ite MW_S1_V5 S1_V5_!2460 (ite MW_S2_V5 S2_V5_!2455 (ite MW_S1_V5 S1_V5_!2450 V5_0)))) (ite MW_S2_V5 S2_V5_!2482 (ite MW_S1_V5 S1_V5_!2471 V5_0)))))
 (let ((?x6049 (ite MW_S1_V2 S1_V2_!2470 V2_0)))
 (let ((?x4159 (ite MW_S2_V2 S2_V2_!2481 ?x6049)))
 (let ((?x1909 (ite MW_S1_V2 S1_V2_!2449 V2_0)))
 (let ((?x2130 (ite MW_S2_V2 S2_V2_!2454 ?x1909)))
 (let ((?x2517 (ite MW_S1_V2 S1_V2_!2459 ?x2130)))
 (let ((?x1346 (ite MW_S2_V2 S2_V2_!2464 ?x2517)))
 (let (($x5139 (= (ite MW_S2_V3 S2_V3_!2463 (ite MW_S1_V3 S1_V3_!2458 (ite MW_S2_V3 S2_V3_!2453 (ite MW_S1_V3 S1_V3_!2448 V3_0)))) (ite MW_S2_V3 S2_V3_!2480 (ite MW_S1_V3 S1_V3_!2469 V3_0)))))
 (let ((?x2048 (ite MW_S2_V1 S2_V1_!2474 E1_!2473)))
 (let ((?x491 (+ 1 ?x2048)))
 (let ((?x1232 (ite MW_S2_V1 S2_V1_!2479 ?x491)))
 (let ((?x632 (ite MW_S1_V1 S1_V1_!2447 E1_!2446)))
 (let ((?x3218 (ite MW_S2_V1 S2_V1_!2452 ?x632)))
 (let ((?x6052 (+ 1 ?x3218)))
 (let ((?x1795 (ite MW_S1_V1 S1_V1_!2457 ?x6052)))
 (let ((?x4032 (ite MW_S2_V1 S2_V1_!2462 ?x1795)))
 (let (($x478 (and (not (<= V2_0 E1_!2446)) (not (<= ?x2130 ?x6052)) (>= ?x4032 (+ (- 1) ?x1346)) (not (<= V2_0 E1_!2467)) (>= (ite MW_S1_V1 S1_V1_!2468 E1_!2467) (+ (- 1) ?x6049)) (not (<= ?x6049 E1_!2473)) (not (<= (ite MW_S2_V2 S2_V2_!2476 ?x6049) ?x491)) (>= ?x1232 (+ (- 1) ?x4159)))))
 (let (($x5780 (= S2_V3_!2475 S2_V3_!2480)))
 (let (($x2258 (not R_S2_V4)))
 (let (($x83 (or $x2258 (= (ite MW_S1_V4 S1_V4_!2472 V4_0) (ite MW_S2_V4 S2_V4_!2478 (ite MW_S1_V4 S1_V4_!2472 V4_0))))))
 (let (($x371 (not R_S2_V5)))
 (let (($x1652 (or $x371 (= (ite MW_S1_V5 S1_V5_!2471 V5_0) (ite MW_S2_V5 S2_V5_!2477 (ite MW_S1_V5 S1_V5_!2471 V5_0))))))
 (let (($x118 (not R_S2_V3)))
 (let (($x8 (or $x118 (= (ite MW_S1_V3 S1_V3_!2469 V3_0) (ite MW_S2_V3 S2_V3_!2475 (ite MW_S1_V3 S1_V3_!2469 V3_0))))))
 (let (($x4951 (and (or (not R_S2_V1) (= E1_!2473 ?x491)) $x8 (or (not R_S2_V2) (= ?x6049 (ite MW_S2_V2 S2_V2_!2476 ?x6049))) $x1652 $x83)))
 (let (($x1918 (not $x4951)))
 (let (($x2041 (= S2_V3_!2475 S2_V3_!2463)))
 (let ((?x1872 (ite MW_S1_V4 S1_V4_!2451 V4_0)))
 (let ((?x2707 (ite MW_S2_V4 S2_V4_!2456 ?x1872)))
 (let ((?x5050 (ite MW_S1_V4 S1_V4_!2461 ?x2707)))
 (let ((?x1888 (ite MW_S1_V4 S1_V4_!2472 V4_0)))
 (let ((?x5787 (ite MW_S1_V5 S1_V5_!2450 V5_0)))
 (let ((?x4817 (ite MW_S2_V5 S2_V5_!2455 ?x5787)))
 (let ((?x5618 (ite MW_S1_V5 S1_V5_!2460 ?x4817)))
 (let ((?x3431 (ite MW_S1_V5 S1_V5_!2471 V5_0)))
 (let ((?x1939 (ite MW_S1_V3 S1_V3_!2448 V3_0)))
 (let ((?x3791 (ite MW_S2_V3 S2_V3_!2453 ?x1939)))
 (let ((?x372 (ite MW_S1_V3 S1_V3_!2458 ?x3791)))
 (let ((?x3315 (ite MW_S1_V3 S1_V3_!2469 V3_0)))
 (let (($x3814 (and (or (not R_S2_V1) (= E1_!2473 ?x1795)) (or $x118 (= ?x3315 ?x372)) (or (not R_S2_V2) (= ?x6049 ?x2517)) (or $x371 (= ?x3431 ?x5618)) (or $x2258 (= ?x1888 ?x5050)))))
 (let (($x5102 (not $x3814)))
 (let (($x1848 (= S2_V3_!2475 S2_V3_!2453)))
 (let (($x3143 (and (or (not R_S2_V1) (= E1_!2473 ?x632)) (or $x118 (= ?x3315 ?x1939)) (or (not R_S2_V2) (= ?x6049 ?x1909)) (or $x371 (= ?x3431 ?x5787)) (or $x2258 (= ?x1888 ?x1872)))))
 (let (($x4125 (not $x3143)))
 (let (($x2609 (= S2_V3_!2463 S2_V3_!2480)))
 (let (($x1934 (and (or (not R_S2_V1) (= ?x1795 ?x491)) (or $x118 (= ?x372 (ite MW_S2_V3 S2_V3_!2475 ?x3315))) (or (not R_S2_V2) (= ?x2517 (ite MW_S2_V2 S2_V2_!2476 ?x6049))) (or $x371 (= ?x5618 (ite MW_S2_V5 S2_V5_!2477 ?x3431))) (or $x2258 (= ?x5050 (ite MW_S2_V4 S2_V4_!2478 ?x1888))))))
 (let (($x5309 (not $x1934)))
 (let (($x2576 (= S2_V3_!2463 S2_V3_!2453)))
 (let (($x4742 (and (or (not R_S2_V1) (= ?x1795 ?x632)) (or $x118 (= ?x372 ?x1939)) (or (not R_S2_V2) (= ?x2517 ?x1909)) (or $x371 (= ?x5618 ?x5787)) (or $x2258 (= ?x5050 ?x1872)))))
 (let (($x4437 (not $x4742)))
 (let (($x4825 (= S2_V3_!2453 S2_V3_!2480)))
 (let (($x2357 (and (or (not R_S2_V1) (= ?x632 ?x491)) (or $x118 (= ?x1939 (ite MW_S2_V3 S2_V3_!2475 ?x3315))) (or (not R_S2_V2) (= ?x1909 (ite MW_S2_V2 S2_V2_!2476 ?x6049))) (or $x371 (= ?x5787 (ite MW_S2_V5 S2_V5_!2477 ?x3431))) (or $x2258 (= ?x1872 (ite MW_S2_V4 S2_V4_!2478 ?x1888))))))
 (let (($x4289 (not $x2357)))
 (let (($x2932 (= S2_V2_!2481 S2_V2_!2476)))
 (let (($x1601 (and (or (not R_S2_V1) (= ?x2048 (+ (- 1) E1_!2473))) (or $x118 (= (ite MW_S2_V3 S2_V3_!2475 ?x3315) ?x3315)) (or (not R_S2_V2) (= (ite MW_S2_V2 S2_V2_!2476 ?x6049) ?x6049)) (or $x371 (= (ite MW_S2_V5 S2_V5_!2477 ?x3431) ?x3431)) (or $x2258 (= (ite MW_S2_V4 S2_V4_!2478 ?x1888) ?x1888)))))
 (let (($x1773 (not $x1601)))
 (let (($x5932 (= S2_V2_!2481 S2_V2_!2464)))
 (let (($x3312 (and (or (not R_S2_V1) (= ?x2048 (+ (- 1) ?x1795))) (or $x118 (= (ite MW_S2_V3 S2_V3_!2475 ?x3315) ?x372)) (or (not R_S2_V2) (= (ite MW_S2_V2 S2_V2_!2476 ?x6049) ?x2517)) (or $x371 (= (ite MW_S2_V5 S2_V5_!2477 ?x3431) ?x5618)) (or $x2258 (= (ite MW_S2_V4 S2_V4_!2478 ?x1888) ?x5050)))))
 (let (($x4166 (= S2_V2_!2464 S2_V2_!2476)))
 (let (($x146 (and (or (not R_S2_V1) (= ?x1795 E1_!2473)) (or $x118 (= ?x372 ?x3315)) (or (not R_S2_V2) (= ?x2517 ?x6049)) (or $x371 (= ?x5618 ?x3431)) (or $x2258 (= ?x5050 ?x1888)))))
 (let (($x2537 (not $x146)))
 (let (($x4118 (= S2_V2_!2454 S2_V2_!2476)))
 (let (($x2813 (and (or (not R_S2_V1) (= ?x632 E1_!2473)) (or $x118 (= ?x1939 ?x3315)) (or (not R_S2_V2) (= ?x1909 ?x6049)) (or $x371 (= ?x5787 ?x3431)) (or $x2258 (= ?x1872 ?x1888)))))
 (let (($x817 (not $x2813)))
 (let (($x2511 (= S2_V2_!2454 S2_V2_!2464)))
 (let (($x420 (and (or (not R_S2_V1) (= ?x632 ?x1795)) (or $x118 (= ?x1939 ?x372)) (or (not R_S2_V2) (= ?x1909 ?x2517)) (or $x371 (= ?x5787 ?x5618)) (or $x2258 (= ?x1872 ?x5050)))))
 (let (($x3855 (not $x420)))
 (let (($x3445 (= S1_V4_!2472 S1_V4_!2461)))
 (let (($x5363 (not R_S1_V4)))
 (let (($x835 (or $x5363 (= V4_0 ?x2707))))
 (let (($x1344 (not R_S1_V5)))
 (let (($x2187 (or $x1344 (= V5_0 ?x4817))))
 (let (($x3728 (not R_S1_V2)))
 (let (($x3300 (or $x3728 (= V2_0 ?x2130))))
 (let (($x1051 (not R_S1_V3)))
 (let (($x5855 (or $x1051 (= V3_0 ?x3791))))
 (let (($x1318 (not (and (or (not R_S1_V1) (= E1_!2467 ?x6052)) $x5855 $x3300 $x2187 $x835))))
 (let (($x46 (not (and (or (not R_S1_V1) (= E1_!2446 ?x6052)) $x5855 $x3300 $x2187 $x835))))
 (let (($x606 (and (or (not R_S2_V1) (= ?x2048 (+ (- 1) ?x632))) (or $x118 (= (ite MW_S2_V3 S2_V3_!2475 ?x3315) ?x1939)) (or (not R_S2_V2) (= (ite MW_S2_V2 S2_V2_!2476 ?x6049) ?x1909)) (or $x371 (= (ite MW_S2_V5 S2_V5_!2477 ?x3431) ?x5787)) (or $x2258 (= (ite MW_S2_V4 S2_V4_!2478 ?x1888) ?x1872)))))
 (let (($x2836 (and (or (not R_E1_V2) (= V2_0 ?x6049)) (or (not R_E1_V5) (= V5_0 ?x3431)) (or (not R_E1_V4) (= V4_0 ?x1888)))))
 (let (($x3021 (not $x2836)))
 (let (($x1564 (= E1_!2467 E1_!2446)))
 (let (($x3616 (or $x5363 (= ?x2707 V4_0))))
 (let (($x6010 (or $x1344 (= ?x4817 V5_0))))
 (let (($x3518 (or $x3728 (= ?x2130 V2_0))))
 (let (($x2751 (or $x1051 (= ?x3791 V3_0))))
 (let (($x676 (and (or (not R_S1_V1) (= ?x3218 (+ (- 1) E1_!2467))) $x2751 $x3518 $x6010 $x3616)))
 (let (($x18 (not $x676)))
 (let (($x1954 (= S1_V2_!2459 S1_V2_!2449)))
 (let (($x3560 (and (or (not R_S1_V1) (= ?x3218 (+ (- 1) E1_!2446))) $x2751 $x3518 $x6010 $x3616)))
 (let (($x518 (not $x3560)))
 (let (($x5850 (and (or $x518 (= S1_V1_!2457 S1_V1_!2447)) (or (not (or (not R_S1_V1) $x1564)) (= S1_V1_!2468 S1_V1_!2447)) (or $x1318 (= S1_V1_!2468 S1_V1_!2457)) (or $x3855 (= S2_V5_!2455 S2_V5_!2465)) (or $x817 (= S2_V5_!2455 S2_V5_!2477)) (or $x4289 (= S2_V5_!2455 S2_V5_!2482)) (or $x2537 (= S2_V5_!2465 S2_V5_!2477)) (or $x5309 (= S2_V5_!2465 S2_V5_!2482)) (or $x1773 (= S2_V5_!2482 S2_V5_!2477)) (or $x518 (= S1_V3_!2458 S1_V3_!2448)) (or $x18 (= S1_V3_!2458 S1_V3_!2469)) (or (not (or (not R_S1_V1) $x1564)) (= S1_V3_!2469 S1_V3_!2448)) (or $x518 $x1954) (or $x18 (= S1_V2_!2459 S1_V2_!2470)) (or (not (or (not R_S1_V1) $x1564)) (= S1_V2_!2470 S1_V2_!2449)) (or $x3021 (= E1_!2446 E1_!2473)) $x1564 (or $x3021 (= E1_!2467 E1_!2473)) (or $x4437 (= S2_V4_!2466 S2_V4_!2456)) (or $x2537 (= S2_V4_!2466 S2_V4_!2478)) (or $x5309 (= S2_V4_!2466 S2_V4_!2483)) (or $x4125 (= S2_V4_!2478 S2_V4_!2456)) (or $x1918 (= S2_V4_!2478 S2_V4_!2483)) (or (not $x606) (= S2_V4_!2483 S2_V4_!2456)) (or $x46 (= S1_V5_!2450 S1_V5_!2460)) (or (not (or (not R_S1_V1) $x1564)) (= S1_V5_!2471 S1_V5_!2450)) (or $x1318 (= S1_V5_!2471 S1_V5_!2460)) (or $x4289 (= S2_V1_!2452 S2_V1_!2479)) (or $x4437 (= S2_V1_!2462 S2_V1_!2452)) (or $x5309 (= S2_V1_!2462 S2_V1_!2479)) (or $x4125 (= S2_V1_!2474 S2_V1_!2452)) (or $x5102 (= S2_V1_!2474 S2_V1_!2462)) (or $x1918 (= S2_V1_!2474 S2_V1_!2479)) (or $x46 (= S1_V4_!2451 S1_V4_!2461)) (or (not (or (not R_S1_V1) (= E1_!2446 E1_!2467))) (= S1_V4_!2451 S1_V4_!2472)) (or $x1318 $x3445) (or $x3855 $x2511) (or $x817 $x4118) (or $x4289 (= S2_V2_!2454 S2_V2_!2481)) (or $x2537 $x4166) (or (not $x3312) $x5932) (or $x1773 $x2932) (or $x4289 $x4825) (or $x4437 $x2576) (or $x5309 $x2609) (or $x4125 $x1848) (or $x5102 $x2041) (or $x1918 $x5780) (not MW_S1_V1) (not MW_S1_V2) (or (not MW_S1_V5) W_S1_V5) (or (not MW_S1_V4) W_S1_V4) (or (not MW_S2_V1) W_S2_V1) (or (not MW_S2_V3) W_S2_V3) (or (not MW_S2_V2) W_S2_V2) (or (not MW_S2_V5) W_S2_V5))))
 (or (not $x5850) (not $x478) (and (= ?x4032 ?x1232) $x5139 (= ?x1346 ?x4159) $x922 $x3044))))))))))))))))))))))))))))))))))))))))))))))))))))))))))))))))))))))))))))))))))))))))))))))))
 )
 )
 )
 )
 )
 )
 )
 )
 )
 )
 )
 )
 )
 )
 )
 )
 )
 )
 )
 )
 )
 )
 )
 )
 )
 )
 )
 )
 )
 )
 )
 )
 )
 )
 )
 )
 )
 )
 )
 )
 )
 )
 )
 )
 )
 )
 )
 )
 )
 )
 )
 ))
 (let (($x2419 (not (or (and W_S2_V2 R_E1_V2) (and W_S2_V5 R_E1_V5) R_E1_V4))))
 (let (($x1570 (= DISJ_W_S2_R_E1 $x2419)))
 (let (($x2673 (and W_S2_V5 R_S2_V5)))
 (let (($x622 (and W_S2_V2 R_S2_V2)))
 (let (($x2310 (and W_S2_V3 R_S2_V3)))
 (let (($x3129 (and W_S2_V1 R_S2_V1)))
 (let (($x5992 (= DISJ_W_S2_R_S2 (not (or $x3129 $x2310 $x622 $x2673 R_S2_V4)))))
 (let (($x1964 (and W_S2_V5 R_S1_V5)))
 (let (($x5842 (and W_S2_V2 R_S1_V2)))
 (let (($x4056 (and W_S2_V3 R_S1_V3)))
 (let (($x741 (and W_S2_V1 R_S1_V1)))
 (let (($x5169 (= DISJ_W_S2_R_S1 (not (or $x741 $x4056 $x5842 $x1964 R_S1_V4)))))
 (let (($x2462 (= DISJ_W_S1_W_S2 (not (or W_S2_V3 (and W_S1_V5 W_S2_V5) W_S1_V4)))))
 (let (($x5351 (not R_E1_V3)))
 (let (($x1036 (not (or R_S2_V3 (and W_S1_V5 R_S2_V5) (and W_S1_V4 R_S2_V4)))))
 (let (($x3009 (= DISJ_W_S1_R_S2 $x1036)))
 (let (($x3082 (not (or R_S1_V3 (and W_S1_V5 R_S1_V5) (and W_S1_V4 R_S1_V4)))))
 (let (($x1955 (= DISJ_W_S1_R_S1 $x3082)))
 (let (($x572 (not R_S1_V1)))
 (let (($x286 (and $x572 DISJ_W_S1_R_S1)))
 (let (($x2025 (and $x472 DISJ_W_S2_R_S1 DISJ_W_S1_R_S1)))
 (let (($x5346 (or $x2025 $x2111 $x286)))
 (let (($x1638 (not W_S1_V2)))
 (let (($x1974 (not W_S1_V1)))
 (let (($x4983 (not R_E1_V1)))
 (let (($x5285 (and DISJ_W_S1_R_E1 $x4983 $x1974 $x1638 $x5346 W_S1_V3 W_S2_V4 $x1955 $x3009 $x5351 $x2462 $x5169 $x5992 $x1570 $x5866 $x228 $x703)))
 (and $x5285 $x967 $x1234 $x2265 $x2625 $x3712 $x1207 $x1993 $x2032 $x2054 $x5371 $x2042)))))))))))))))))))))))))))))))))))))))))))))
(check-sat)
